3 16 1 10
14 7 17 12 15 19 8 2 15 9 3 11 7 13 9 7 
7.02 6.73 1.23 3.97 7.04 5.63 6.39 5.43 7.77 4.99 2.94 7.98 1.64 1.28 1.92 6.56 
4 4 4 4 4 4 4 4 4 4 4 4 4 4 4 4 
6.62 2.42 7.72 0.85 5.59 2.29 3.86 5.71 2.3 1.91 6.67 5.58 6.98 0.2 0.74 7.43 
1 1 1 1 1 1 1 1 1 1 1 1 1 1 1 1 
1 1 1 1 1 1 1 1 1 1 1 1 1 1 1 1 
1 1 1 1 1 1 1 1 1 1 1 1 1 1 1 1 
0.01 0.01 0.01 0.01 0.01 0.01 0.01 0.01 0.01 0.01 0.01 0.01 0.01 0.01 0.01 0.01 
0.02 0.02 0.02 0.02 0.02 0.02 0.02 0.02 0.02 0.02 0.02 0.02 0.02 0.02 0.02 0.02 
1 1 1 1 1 1 1 1 1 1 1 1 1 1 1 1 
